NAME : AA55.1907829.tour
COMMENT : Cost = 0_1907829
COMMENT : Found by LKH [Keld Helsgaun] Sun Apr 23 15:14:35 2017
TYPE : TOUR
DIMENSION : 114
TOUR_SECTION
1
17
72
41
96
11
66
36
91
27
82
23
78
46
101
33
39
88
94
30
28
85
83
114
10
65
13
68
55
110
37
92
35
90
40
95
53
108
7
62
6
61
42
97
8
63
3
58
47
102
112
50
48
105
103
25
80
2
32
87
12
67
43
57
24
98
79
29
84
26
44
81
99
22
77
49
104
34
89
52
107
113
54
109
18
73
31
86
15
70
45
100
4
59
51
106
19
74
56
111
20
9
75
64
14
69
16
71
21
5
60
76
38
93
-1
EOF
